<number of tasks>
58

<cycle time>
82

<task times>
1 10
2 53
3 41
4 36
5 35
6 17
7 34
8 23
9 14
10 52
11 33
12 34
13 12
14 52
15 12
16 33
17 44
18 7
19 15
20 13
21 29
22 37
23 43
24 23
25 24
26 9
27 16
28 12
29 26
30 22
31 51
32 47
33 34
34 23
35 12
36 52
37 12
38 33
39 44
40 7
41 15
42 13
43 29
44 37
45 43
46 23
47 24
48 9
49 16
50 12
51 26
52 12
53 52
54 12
55 33
56 44
57 7
58 15

<precedence relations>
1,9
2,25
3,21
3,22
4,10
5,36
6,23
6,24
7,43
8,44
9,11
11,13
11,14
11,15
12,17
13,17
14,17
15,17
16,18
17,20
18,19
19,23
20,21
20,25
21,26
21,44
22,27
23,31
24,31
25,38
26,29
27,30
28,32
28,33
29,31
30,34
31,36
32,45
33,35
34,36
35,43
36,37
36,38
37,39
37,40
37,41
38,52
39,43
40,43
41,42
42,43
43,45
44,45
45,46
45,48
45,49
46,47
46,50
47,51
48,55
49,58
50,58
51,52
52,53
53,54
54,55
54,56
55,57
56,57
57,58

<setup times forward>
1,2:3
1,3:11
1,6:3
1,7:5
1,8:5
1,9:6
1,10:3
1,12:6
1,16:11
1,18:11
1,19:3
1,22:8
1,23:8
1,24:5
1,28:3
1,32:1
1,33:6
1,34:6
1,35:3
2,1:3
2,3:8
2,4:3
2,5:3
2,7:2
2,8:2
2,9:3
2,11:4
2,12:3
2,13:7
2,14:7
2,15:7
2,16:8
2,17:3
2,18:8
2,20:9
2,21:9
2,22:5
2,23:5
2,24:2
2,25:2
2,26:9
2,27:3
2,29:1
2,30:3
2,31:1
2,32:4
2,33:3
2,34:9
2,36:2
2,37:6
2,39:10
2,40:9
2,41:6
2,42:6
2,43:9
2,44:6
2,45:9
2,46:8
2,47:8
2,48:2
2,49:2
2,50:6
2,51:8
3,1:11
3,2:8
3,4:11
3,5:11
3,6:8
3,7:6
3,8:6
3,9:5
3,10:8
3,11:12
3,12:5
3,13:15
3,14:15
3,15:15
3,17:11
3,19:8
3,20:17
3,21:17
3,22:3
3,23:3
3,24:6
3,25:6
3,28:8
3,32:12
3,33:5
3,35:8
4,2:3
4,3:11
4,6:3
4,7:5
4,8:5
4,9:6
4,10:3
4,11:1
4,12:6
4,13:4
4,14:4
4,15:4
4,16:11
4,18:11
4,19:3
4,20:6
4,21:6
4,22:8
4,23:8
4,24:5
4,25:5
4,26:6
4,28:3
4,29:2
4,31:2
4,32:1
4,33:6
4,34:6
4,35:3
4,36:5
4,37:9
4,38:7
4,39:7
4,40:6
4,41:9
4,42:9
4,43:6
4,44:9
4,45:6
4,46:11
4,47:11
4,48:5
4,49:5
4,50:9
4,51:11
4,52:1
4,53:1
4,54:5
4,55:5
4,56:9
4,57:9
4,58:9
5,2:3
5,3:11
5,6:3
5,7:5
5,8:5
5,9:6
5,10:3
5,11:1
5,12:6
5,13:4
5,14:4
5,15:4
5,16:11
5,18:11
5,19:3
5,20:6
5,21:6
5,22:8
5,23:8
5,24:5
5,25:5
5,26:6
5,28:3
5,29:2
5,31:2
5,32:1
5,33:6
5,34:6
5,35:3
5,36:5
5,44:9
6,1:3
6,3:8
6,4:3
6,5:3
6,7:2
6,8:2
6,9:3
6,11:4
6,12:3
6,13:7
6,14:7
6,15:7
6,16:8
6,17:3
6,18:8
6,20:9
6,21:9
6,22:5
6,23:5
6,24:2
6,25:2
6,26:9
6,27:3
6,29:1
6,30:3
6,32:4
6,33:3
6,34:9
6,44:6
7,1:5
7,2:2
7,3:6
7,4:5
7,5:5
7,6:2
7,9:1
7,10:2
7,11:6
7,12:1
7,13:9
7,14:9
7,15:9
7,16:6
7,17:5
7,18:6
7,19:2
7,20:11
7,21:11
7,22:3
7,23:3
7,26:11
7,27:5
7,28:2
7,29:3
7,30:5
7,31:3
7,32:6
7,33:1
7,34:11
7,35:2
7,37:4
7,38:12
7,39:12
7,40:11
7,41:4
7,42:4
7,43:11
7,44:4
8,1:5
8,2:2
8,3:6
8,4:5
8,5:5
8,6:2
8,9:1
8,10:2
8,11:6
8,12:1
8,13:9
8,14:9
8,15:9
8,16:6
8,17:5
8,18:6
8,19:2
8,20:11
8,21:11
8,22:3
8,23:3
8,26:11
8,27:5
8,28:2
8,29:3
8,30:5
8,31:3
8,32:6
8,33:1
8,34:11
8,35:2
8,37:4
8,38:12
8,39:12
8,40:11
8,41:4
8,42:4
8,43:11
8,44:4
9,2:3
9,3:5
9,4:6
9,5:6
9,6:3
9,7:1
9,8:1
9,10:3
9,11:7
9,16:5
9,18:5
9,19:3
9,22:2
9,23:2
9,24:1
9,27:6
9,28:3
9,30:6
9,32:7
9,34:12
9,35:3
10,1:3
10,3:8
10,5:3
10,7:2
10,8:2
10,9:3
10,11:4
10,12:3
10,13:7
10,14:7
10,15:7
10,16:8
10,17:3
10,18:8
10,20:9
10,21:9
10,22:5
10,23:5
10,24:2
10,25:2
10,26:9
10,27:3
10,29:1
10,30:3
10,31:1
10,32:4
10,33:3
10,34:9
10,36:2
10,37:6
10,38:10
10,39:10
10,40:9
10,41:6
10,42:6
10,43:9
10,44:6
10,45:9
10,46:8
10,47:8
10,48:2
10,49:2
10,50:6
10,51:8
10,52:2
10,53:2
10,54:2
10,55:2
10,56:6
10,57:6
10,58:6
11,2:4
11,3:12
11,4:1
11,5:1
11,6:4
11,7:6
11,8:6
11,10:4
11,12:7
11,13:3
11,14:3
11,15:3
11,16:12
11,18:12
11,19:4
11,22:9
11,23:9
11,24:6
11,27:1
11,28:4
11,30:1
11,33:7
11,34:5
11,35:4
12,1:6
12,2:3
12,3:5
12,4:6
12,5:6
12,6:3
12,7:1
12,8:1
12,10:3
12,11:7
12,13:10
12,14:10
12,15:10
12,16:5
12,17:6
12,18:5
12,19:3
12,22:2
12,23:2
12,24:1
12,27:6
12,28:3
12,30:6
12,32:7
12,34:12
12,35:3
13,2:7
13,3:15
13,4:4
13,5:4
13,6:7
13,7:9
13,8:9
13,10:7
13,12:10
13,16:15
13,17:4
13,18:15
13,19:7
13,22:12
13,23:12
13,24:9
13,27:4
13,28:7
13,30:4
13,32:3
13,33:10
13,34:2
13,35:7
14,2:7
14,3:15
14,4:4
14,5:4
14,6:7
14,7:9
14,8:9
14,10:7
14,12:10
14,16:15
14,17:4
14,18:15
14,19:7
14,22:12
14,23:12
14,24:9
14,27:4
14,28:7
14,30:4
14,32:3
14,33:10
14,34:2
14,35:7
15,2:7
15,3:15
15,4:4
15,5:4
15,6:7
15,7:9
15,8:9
15,10:7
15,12:10
15,16:15
15,17:4
15,18:15
15,19:7
15,22:12
15,23:12
15,24:9
15,27:4
15,28:7
15,30:4
15,32:3
15,33:10
15,34:2
15,35:7
16,1:11
16,2:8
16,4:11
16,5:11
16,6:8
16,7:6
16,8:6
16,9:5
16,10:8
16,11:12
16,12:5
16,13:15
16,14:15
16,15:15
16,17:11
16,20:17
16,21:17
16,22:3
16,24:6
16,25:6
16,26:17
16,27:11
16,28:8
16,29:9
16,30:11
16,32:12
16,33:5
16,34:17
16,35:8
16,44:2
17,2:3
17,3:11
17,6:3
17,7:5
17,8:5
17,10:3
17,16:11
17,18:11
17,19:3
17,20:6
17,22:8
17,23:8
17,24:5
17,28:3
17,32:1
17,33:6
17,34:6
17,35:3
18,1:11
18,2:8
18,4:11
18,5:11
18,6:8
18,7:6
18,8:6
18,9:5
18,10:8
18,11:12
18,12:5
18,13:15
18,14:15
18,15:15
18,17:11
18,19:8
18,20:17
18,21:17
18,22:3
18,24:6
18,25:6
18,26:17
18,27:11
18,28:8
18,29:9
18,30:11
18,32:12
18,33:5
18,34:17
18,35:8
18,44:2
19,1:3
19,3:8
19,4:3
19,5:3
19,7:2
19,8:2
19,9:3
19,11:4
19,12:3
19,13:7
19,14:7
19,15:7
19,17:3
19,20:9
19,21:9
19,22:5
19,23:5
19,24:2
19,25:2
19,26:9
19,27:3
19,29:1
19,30:3
19,32:4
19,33:3
19,34:9
19,44:6
20,2:9
20,3:17
20,4:6
20,5:6
20,6:9
20,7:11
20,8:11
20,10:9
20,16:17
20,18:17
20,19:9
20,22:14
20,23:14
20,24:11
20,25:11
20,27:6
20,28:9
20,30:6
20,32:5
20,33:12
20,35:9
21,2:9
21,4:6
21,5:6
21,6:9
21,7:11
21,8:11
21,10:9
21,16:17
21,18:17
21,19:9
21,22:14
21,23:14
21,24:11
21,25:11
21,27:6
21,28:9
21,30:6
21,32:5
21,33:12
21,35:9
21,44:15
22,1:8
22,2:5
22,4:8
22,5:8
22,6:5
22,7:3
22,8:3
22,9:2
22,10:5
22,11:9
22,12:2
22,13:12
22,14:12
22,15:12
22,16:3
22,17:8
22,18:3
22,19:5
22,20:14
22,21:14
22,24:3
22,25:3
22,26:14
22,27:8
22,28:5
22,29:6
22,31:6
22,32:9
22,33:2
22,35:5
22,44:1
23,1:8
23,2:5
23,3:3
23,4:8
23,5:8
23,7:3
23,8:3
23,9:2
23,10:5
23,11:9
23,12:2
23,13:12
23,14:12
23,15:12
23,17:8
23,20:14
23,21:14
23,24:3
23,25:3
23,26:14
23,27:8
23,28:5
23,29:6
23,30:8
23,31:6
23,32:9
23,33:2
23,34:14
23,35:5
23,44:1
24,1:5
24,2:2
24,3:6
24,4:5
24,5:5
24,9:1
24,10:2
24,11:6
24,12:1
24,13:9
24,14:9
24,15:9
24,16:6
24,17:5
24,18:6
24,19:2
24,20:11
24,21:11
24,22:3
24,23:3
24,26:11
24,27:5
24,28:2
24,29:3
24,30:5
24,31:3
24,32:6
24,33:1
24,34:11
24,35:2
24,44:4
25,3:6
25,4:5
25,5:5
25,6:2
25,10:2
25,16:6
25,18:6
25,19:2
25,21:11
25,22:3
25,23:3
25,26:11
25,27:5
25,28:2
25,29:3
25,30:5
25,31:3
25,32:6
25,33:1
25,34:11
25,35:2
25,37:4
25,38:12
25,39:12
25,40:11
25,41:4
25,42:4
25,43:11
25,44:4
25,45:11
25,46:6
25,47:6
25,50:4
25,51:6
26,2:9
26,4:6
26,5:6
26,6:9
26,7:11
26,8:11
26,10:9
26,16:17
26,18:17
26,19:9
26,22:14
26,23:14
26,24:11
26,25:11
26,27:6
26,28:9
26,29:8
26,30:6
26,32:5
26,33:12
26,35:9
26,44:15
27,2:3
27,6:3
27,7:5
27,8:5
27,9:6
27,10:3
27,11:1
27,12:6
27,13:4
27,14:4
27,15:4
27,16:11
27,18:11
27,19:3
27,20:6
27,21:6
27,23:8
27,24:5
27,25:5
27,26:6
27,28:3
27,29:2
27,31:2
27,32:1
27,33:6
27,35:3
27,44:9
28,1:3
28,3:8
28,4:3
28,5:3
28,7:2
28,8:2
28,9:3
28,11:4
28,12:3
28,13:7
28,14:7
28,15:7
28,16:8
28,17:3
28,18:8
28,20:9
28,21:9
28,22:5
28,23:5
28,24:2
28,25:2
28,26:9
28,27:3
28,29:1
28,30:3
28,31:1
28,32:4
28,33:3
28,34:9
28,36:2
28,37:6
28,38:10
28,39:10
28,40:9
28,41:6
28,42:6
28,44:6
29,2:1
29,4:2
29,5:2
29,6:1
29,7:3
29,8:3
29,10:1
29,16:9
29,18:9
29,19:1
29,22:6
29,23:6
29,24:3
29,25:3
29,27:2
29,28:1
29,30:2
29,32:3
29,33:4
29,34:8
29,35:1
29,44:7
30,2:3
30,6:3
30,7:5
30,8:5
30,9:6
30,10:3
30,11:1
30,12:6
30,13:4
30,14:4
30,15:4
30,16:11
30,18:11
30,19:3
30,20:6
30,21:6
30,23:8
30,24:5
30,25:5
30,26:6
30,28:3
30,29:2
30,31:2
30,32:1
30,33:6
30,34:6
30,35:3
30,44:9
31,2:1
31,4:2
31,5:2
31,7:3
31,8:3
31,10:1
31,22:6
31,25:3
31,27:2
31,28:1
31,30:2
31,32:3
31,33:4
31,34:8
31,35:1
31,36:3
31,44:7
32,1:1
32,2:4
32,3:12
32,4:1
32,5:1
32,6:4
32,7:6
32,8:6
32,9:7
32,10:4
32,12:7
32,13:3
32,14:3
32,15:3
32,16:12
32,17:1
32,18:12
32,19:4
32,20:5
32,21:5
32,22:9
32,23:9
32,24:6
32,25:6
32,26:5
32,27:1
32,29:3
32,30:1
32,31:3
32,33:7
32,34:5
32,35:4
32,36:6
32,37:10
32,38:6
32,39:6
32,40:5
32,41:10
32,42:10
32,43:5
32,44:10
32,45:5
33,1:6
33,2:3
33,3:5
33,4:6
33,5:6
33,6:3
33,7:1
33,8:1
33,10:3
33,11:7
33,13:10
33,14:10
33,15:10
33,16:5
33,17:6
33,18:5
33,19:3
33,20:12
33,21:12
33,22:2
33,23:2
33,24:1
33,25:1
33,26:12
33,27:6
33,29:4
33,30:6
33,31:4
33,32:7
33,34:12
33,35:3
33,36:1
33,37:3
33,38:13
33,39:13
33,40:12
33,41:3
33,42:3
33,44:3
34,1:6
34,2:9
34,4:6
34,5:6
34,6:9
34,7:11
34,8:11
34,9:12
34,10:9
34,11:5
34,12:12
34,13:2
34,14:2
34,15:2
34,16:17
34,17:6
34,18:17
34,19:9
34,23:14
34,24:11
34,25:11
34,28:9
34,29:8
34,31:8
34,32:5
34,33:12
34,35:9
34,36:11
34,44:15
35,1:3
35,3:8
35,4:3
35,5:3
35,7:2
35,8:2
35,9:3
35,11:4
35,12:3
35,13:7
35,14:7
35,15:7
35,16:8
35,17:3
35,18:8
35,20:9
35,21:9
35,22:5
35,23:5
35,24:2
35,25:2
35,26:9
35,27:3
35,29:1
35,30:3
35,31:1
35,32:4
35,34:9
35,36:2
35,37:6
35,38:10
35,39:10
35,40:9
35,41:6
35,42:6
35,43:9
35,44:6
36,2:2
36,4:5
36,10:2
36,28:2
36,32:6
36,33:1
36,35:2
36,37:4
36,38:12
36,44:4
37,2:6
37,4:9
37,7:4
37,8:4
37,10:6
37,25:4
37,28:6
37,32:10
37,33:3
37,35:6
37,38:16
37,39:16
37,40:15
38,4:7
38,7:12
38,8:12
38,10:10
38,28:10
38,32:6
38,33:13
38,35:10
38,37:16
38,40:1
38,41:16
38,42:16
38,43:1
38,44:16
38,45:1
38,46:18
38,47:18
38,48:12
38,49:12
38,50:16
38,51:18
38,52:8
39,2:10
39,4:7
39,7:12
39,8:12
39,10:10
39,25:12
39,28:10
39,32:6
39,33:13
39,35:10
39,40:1
39,41:16
39,42:16
39,43:1
39,44:16
40,2:9
40,4:6
40,7:11
40,8:11
40,10:9
40,25:11
40,28:9
40,32:5
40,33:12
40,35:9
40,38:1
40,39:1
40,41:15
40,42:15
40,44:15
41,2:6
41,4:9
41,7:4
41,8:4
41,10:6
41,25:4
41,28:6
41,32:10
41,33:3
41,35:6
41,38:16
41,39:16
41,40:15
42,2:6
42,4:9
42,7:4
42,8:4
42,10:6
42,25:4
42,28:6
42,32:10
42,33:3
42,35:6
42,38:16
42,39:16
42,40:15
42,43:15
43,2:9
43,4:6
43,8:11
43,10:9
43,25:11
43,32:5
43,38:1
43,44:15
44,2:6
44,4:9
44,5:9
44,6:6
44,7:4
44,10:6
44,16:2
44,18:2
44,19:6
44,22:1
44,23:1
44,24:4
44,25:4
44,26:15
44,27:9
44,28:6
44,29:7
44,30:9
44,31:7
44,32:10
44,33:3
44,34:15
44,35:6
44,36:4
44,38:16
44,39:16
44,40:15
44,43:15
44,45:15
45,2:9
45,4:6
45,10:9
45,25:11
45,38:1
45,46:17
45,48:11
45,49:11
46,2:8
46,4:11
46,10:8
46,25:6
46,38:18
46,48:6
46,49:6
46,50:2
47,2:8
47,4:11
47,10:8
47,25:6
47,38:18
47,48:6
47,49:6
47,50:2
48,2:2
48,4:5
48,10:2
48,38:12
48,46:6
48,47:6
48,50:4
48,51:6
48,52:4
48,53:4
48,56:4
49,2:2
49,4:5
49,10:2
49,38:12
49,46:6
49,47:6
49,50:4
49,51:6
49,52:4
49,53:4
49,56:4
49,57:4
49,58:4
50,2:6
50,4:9
50,10:6
50,25:4
50,38:16
50,47:2
50,48:4
50,49:4
50,51:2
50,52:8
50,53:8
50,54:4
50,55:4
51,2:8
51,4:11
51,10:8
51,25:6
51,38:18
51,48:6
51,49:6
51,50:2
51,52:10
52,4:1
52,10:2
52,48:4
52,49:4
52,50:8
53,4:1
53,10:2
53,48:4
53,49:4
53,50:8
53,54:4
54,4:5
54,10:2
54,50:4
54,56:4
55,4:5
55,10:2
55,50:4
55,56:4
55,57:4
56,4:9
56,10:6
56,48:4
56,49:4
56,55:4
57,4:9
57,10:6
57,49:4
58,4:9
58,10:6

<setup times backward>
1,32:1
1,34:6
2,1:3
2,4:3
2,5:3
2,11:4
2,13:7
2,14:7
2,15:7
2,17:3
2,20:9
2,21:9
2,26:9
2,27:3
2,29:1
2,30:3
2,31:1
2,32:4
2,34:9
2,39:10
2,40:9
2,43:9
2,45:9
3,1:11
3,2:8
3,4:11
3,5:11
3,6:8
3,7:6
3,8:6
3,9:5
3,10:8
3,11:12
3,12:5
3,13:15
3,14:15
3,15:15
3,17:11
3,19:8
3,20:17
3,23:3
3,24:6
3,25:6
3,28:8
3,32:12
3,33:5
3,35:8
4,11:1
4,13:4
4,14:4
4,15:4
4,20:6
4,21:6
4,26:6
4,32:1
4,34:6
4,38:7
4,39:7
4,40:6
4,43:6
4,45:6
5,11:1
5,13:4
5,14:4
5,15:4
5,20:6
5,21:6
5,26:6
5,32:1
5,34:6
6,1:3
6,4:3
6,5:3
6,11:4
6,13:7
6,14:7
6,15:7
6,17:3
6,20:9
6,21:9
6,26:9
6,27:3
6,29:1
6,30:3
6,32:4
6,34:9
7,1:5
7,2:2
7,4:5
7,5:5
7,6:2
7,10:2
7,11:6
7,13:9
7,14:9
7,15:9
7,17:5
7,19:2
7,20:11
7,21:11
7,26:11
7,27:5
7,28:2
7,29:3
7,30:5
7,31:3
7,32:6
7,34:11
7,35:2
7,38:12
7,39:12
7,40:11
8,1:5
8,2:2
8,4:5
8,5:5
8,6:2
8,10:2
8,11:6
8,13:9
8,14:9
8,15:9
8,17:5
8,19:2
8,20:11
8,21:11
8,26:11
8,27:5
8,28:2
8,29:3
8,30:5
8,31:3
8,32:6
8,34:11
8,35:2
8,38:12
8,39:12
8,40:11
8,43:11
9,1:6
9,2:3
9,4:6
9,5:6
9,6:3
9,7:1
9,8:1
9,10:3
9,19:3
9,24:1
9,27:6
9,28:3
9,30:6
9,32:7
9,34:12
9,35:3
10,1:3
10,4:3
10,5:3
10,11:4
10,13:7
10,14:7
10,15:7
10,17:3
10,20:9
10,21:9
10,26:9
10,27:3
10,29:1
10,30:3
10,31:1
10,32:4
10,34:9
10,38:10
10,39:10
10,40:9
10,43:9
10,45:9
10,52:2
10,53:2
11,34:5
12,1:6
12,2:3
12,4:6
12,5:6
12,6:3
12,7:1
12,8:1
12,10:3
12,11:7
12,13:10
12,14:10
12,15:10
12,19:3
12,24:1
12,27:6
12,28:3
12,30:6
12,32:7
12,34:12
12,35:3
13,34:2
14,34:2
15,34:2
16,1:11
16,2:8
16,4:11
16,5:11
16,6:8
16,7:6
16,8:6
16,9:5
16,10:8
16,11:12
16,12:5
16,13:15
16,14:15
16,15:15
16,17:11
16,20:17
16,21:17
16,22:3
16,24:6
16,25:6
16,26:17
16,27:11
16,28:8
16,29:9
16,30:11
16,32:12
16,33:5
16,34:17
16,35:8
16,44:2
17,11:1
17,13:4
17,14:4
17,15:4
17,32:1
17,34:6
18,1:11
18,2:8
18,4:11
18,5:11
18,6:8
18,7:6
18,8:6
18,9:5
18,10:8
18,11:12
18,12:5
18,13:15
18,14:15
18,15:15
18,17:11
18,20:17
18,21:17
18,22:3
18,24:6
18,25:6
18,26:17
18,27:11
18,28:8
18,29:9
18,30:11
18,32:12
18,33:5
18,34:17
18,35:8
18,44:2
19,1:3
19,4:3
19,5:3
19,11:4
19,13:7
19,14:7
19,15:7
19,17:3
19,20:9
19,21:9
19,26:9
19,27:3
19,29:1
19,30:3
19,32:4
19,34:9
22,1:8
22,2:5
22,4:8
22,5:8
22,6:5
22,7:3
22,8:3
22,9:2
22,10:5
22,11:9
22,12:2
22,13:12
22,14:12
22,15:12
22,17:8
22,19:5
22,20:14
22,21:14
22,24:3
22,25:3
22,26:14
22,28:5
22,29:6
22,31:6
22,32:9
22,33:2
22,35:5
23,1:8
23,2:5
23,4:8
23,5:8
23,6:5
23,7:3
23,8:3
23,9:2
23,10:5
23,11:9
23,12:2
23,13:12
23,14:12
23,15:12
23,17:8
23,19:5
23,20:14
23,21:14
23,24:3
23,25:3
23,26:14
23,27:8
23,28:5
23,29:6
23,30:8
23,32:9
23,33:2
23,34:14
23,35:5
24,1:5
24,2:2
24,4:5
24,5:5
24,6:2
24,10:2
24,11:6
24,13:9
24,14:9
24,15:9
24,17:5
24,19:2
24,20:11
24,21:11
24,26:11
24,27:5
24,28:2
24,29:3
24,30:5
24,32:6
24,34:11
24,35:2
25,1:5
25,2:2
25,4:5
25,5:5
25,6:2
25,10:2
25,11:6
25,13:9
25,14:9
25,15:9
25,17:5
25,19:2
25,20:11
25,21:11
25,26:11
25,27:5
25,28:2
25,29:3
25,30:5
25,31:3
25,32:6
25,34:11
25,35:2
25,39:12
25,40:11
25,43:11
25,45:11
27,11:1
27,13:4
27,14:4
27,15:4
27,20:6
27,21:6
27,26:6
27,32:1
28,1:3
28,4:3
28,5:3
28,11:4
28,13:7
28,14:7
28,15:7
28,17:3
28,20:9
28,21:9
28,26:9
28,27:3
28,29:1
28,30:3
28,31:1
28,34:9
28,38:10
28,39:10
28,40:9
29,1:2
29,4:2
29,5:2
29,11:3
29,13:6
29,14:6
29,15:6
29,17:2
29,20:8
29,21:8
29,26:8
29,27:2
29,30:2
29,32:3
29,34:8
30,11:1
30,13:4
30,14:4
30,15:4
30,20:6
30,21:6
30,26:6
30,32:1
31,1:2
31,4:2
31,5:2
31,11:3
31,13:6
31,14:6
31,15:6
31,17:2
31,20:8
31,21:8
31,26:8
31,27:2
31,30:2
31,32:3
31,34:8
32,13:3
32,14:3
32,15:3
32,20:5
32,21:5
32,26:5
32,34:5
32,38:6
32,39:6
32,40:5
32,43:5
33,1:6
33,2:3
33,4:6
33,5:6
33,6:3
33,7:1
33,8:1
33,10:3
33,11:7
33,13:10
33,14:10
33,15:10
33,17:6
33,19:3
33,20:12
33,21:12
33,24:1
33,25:1
33,26:12
33,27:6
33,28:3
33,29:4
33,30:6
33,31:4
33,32:7
33,34:12
33,36:1
33,38:13
33,39:13
33,40:12
35,1:3
35,4:3
35,5:3
35,11:4
35,13:7
35,14:7
35,15:7
35,17:3
35,20:9
35,21:9
35,26:9
35,27:3
35,29:1
35,30:3
35,31:1
35,32:4
35,34:9
35,38:10
35,39:10
35,40:9
36,1:5
36,2:2
36,4:5
36,5:5
36,6:2
36,10:2
36,11:6
36,13:9
36,14:9
36,15:9
36,17:5
36,19:2
36,20:11
36,21:11
36,26:11
36,27:5
36,28:2
36,29:3
36,30:5
36,31:3
36,32:6
36,34:11
36,35:2
37,1:9
37,2:6
37,4:9
37,5:9
37,6:6
37,7:4
37,8:4
37,9:3
37,10:6
37,11:10
37,12:3
37,13:13
37,14:13
37,15:13
37,17:9
37,19:6
37,20:15
37,21:15
37,22:1
37,23:1
37,24:4
37,25:4
37,26:15
37,27:9
37,28:6
37,29:7
37,30:9
37,31:7
37,32:10
37,33:3
37,34:15
37,35:6
37,36:4
37,38:16
40,38:1
40,39:1
41,1:9
41,2:6
41,4:9
41,5:9
41,6:6
41,7:4
41,8:4
41,9:3
41,10:6
41,11:10
41,12:3
41,13:13
41,14:13
41,15:13
41,17:9
41,19:6
41,20:15
41,21:15
41,22:1
41,23:1
41,24:4
41,25:4
41,26:15
41,27:9
41,28:6
41,29:7
41,30:9
41,31:7
41,32:10
41,33:3
41,34:15
41,35:6
41,36:4
41,38:16
41,39:16
41,40:15
42,1:9
42,2:6
42,4:9
42,5:9
42,6:6
42,7:4
42,8:4
42,9:3
42,10:6
42,11:10
42,12:3
42,13:13
42,14:13
42,15:13
42,17:9
42,19:6
42,20:15
42,21:15
42,22:1
42,23:1
42,24:4
42,25:4
42,26:15
42,27:9
42,28:6
42,29:7
42,30:9
42,31:7
42,32:10
42,33:3
42,34:15
42,35:6
42,36:4
42,38:16
42,39:16
42,40:15
43,38:1
43,39:1
44,1:9
44,2:6
44,4:9
44,5:9
44,6:6
44,7:4
44,8:4
44,9:3
44,10:6
44,11:10
44,12:3
44,13:13
44,14:13
44,15:13
44,17:9
44,19:6
44,20:15
44,21:15
44,22:1
44,23:1
44,24:4
44,25:4
44,26:15
44,27:9
44,28:6
44,29:7
44,30:9
44,31:7
44,32:10
44,33:3
44,34:15
44,35:6
44,36:4
44,38:16
44,39:16
44,40:15
44,43:15
45,38:1
45,39:1
46,1:11
46,2:8
46,4:11
46,5:11
46,6:8
46,7:6
46,8:6
46,9:5
46,10:8
46,11:12
46,12:5
46,13:15
46,14:15
46,15:15
46,17:11
46,19:8
46,20:17
46,21:17
46,22:3
46,23:3
46,24:6
46,25:6
46,26:17
46,27:11
46,28:8
46,29:9
46,30:11
46,31:9
46,32:12
46,33:5
46,34:17
46,35:8
46,36:6
46,37:2
46,38:18
46,39:18
46,40:17
46,41:2
46,42:2
46,43:17
46,44:2
46,45:17
46,48:6
46,49:6
47,1:11
47,2:8
47,4:11
47,5:11
47,6:8
47,7:6
47,8:6
47,9:5
47,10:8
47,11:12
47,12:5
47,13:15
47,14:15
47,15:15
47,17:11
47,19:8
47,20:17
47,21:17
47,22:3
47,23:3
47,24:6
47,25:6
47,26:17
47,27:11
47,28:8
47,29:9
47,30:11
47,31:9
47,32:12
47,33:5
47,34:17
47,35:8
47,36:6
47,37:2
47,38:18
47,39:18
47,40:17
47,41:2
47,42:2
47,43:17
47,44:2
47,45:17
47,48:6
47,49:6
47,50:2
48,1:5
48,2:2
48,4:5
48,5:5
48,6:2
48,10:2
48,11:6
48,13:9
48,14:9
48,15:9
48,17:5
48,19:2
48,20:11
48,21:11
48,26:11
48,27:5
48,28:2
48,29:3
48,30:5
48,31:3
48,32:6
48,34:11
48,35:2
48,38:12
48,39:12
48,40:11
48,43:11
48,45:11
48,52:4
48,53:4
49,1:5
49,2:2
49,4:5
49,5:5
49,6:2
49,10:2
49,11:6
49,13:9
49,14:9
49,15:9
49,17:5
49,19:2
49,20:11
49,21:11
49,26:11
49,27:5
49,28:2
49,29:3
49,30:5
49,31:3
49,32:6
49,34:11
49,35:2
49,38:12
49,39:12
49,40:11
49,43:11
49,45:11
49,52:4
49,53:4
50,1:9
50,2:6
50,4:9
50,5:9
50,6:6
50,7:4
50,8:4
50,9:3
50,10:6
50,11:10
50,12:3
50,13:13
50,14:13
50,15:13
50,17:9
50,19:6
50,20:15
50,21:15
50,22:1
50,23:1
50,24:4
50,25:4
50,26:15
50,27:9
50,28:6
50,29:7
50,30:9
50,31:7
50,32:10
50,33:3
50,34:15
50,35:6
50,36:4
50,38:16
50,39:16
50,40:15
50,43:15
50,45:15
50,48:4
50,49:4
50,52:8
50,53:8
50,54:4
50,55:4
51,1:11
51,2:8
51,4:11
51,5:11
51,6:8
51,7:6
51,8:6
51,9:5
51,10:8
51,11:12
51,12:5
51,13:15
51,14:15
51,15:15
51,17:11
51,19:8
51,20:17
51,21:17
51,22:3
51,23:3
51,24:6
51,25:6
51,26:17
51,27:11
51,28:8
51,29:9
51,30:11
51,31:9
51,32:12
51,33:5
51,34:17
51,35:8
51,36:6
51,37:2
51,38:18
51,39:18
51,40:17
51,41:2
51,42:2
51,43:17
51,44:2
51,45:17
51,48:6
51,49:6
51,50:2
52,1:1
52,4:1
52,5:1
52,11:2
52,13:5
52,14:5
52,15:5
52,17:1
52,20:7
52,21:7
52,26:7
52,27:1
52,30:1
52,32:2
52,34:7
52,38:8
52,39:8
52,40:7
52,43:7
52,45:7
53,1:1
53,4:1
53,5:1
53,11:2
53,13:5
53,14:5
53,15:5
53,17:1
53,20:7
53,21:7
53,26:7
53,27:1
53,30:1
53,32:2
53,34:7
53,38:8
53,39:8
53,40:7
53,43:7
53,45:7
54,1:5
54,2:2
54,4:5
54,5:5
54,6:2
54,10:2
54,11:6
54,13:9
54,14:9
54,15:9
54,17:5
54,19:2
54,20:11
54,21:11
54,26:11
54,27:5
54,28:2
54,29:3
54,30:5
54,31:3
54,32:6
54,34:11
54,35:2
54,38:12
54,39:12
54,40:11
54,43:11
54,45:11
54,52:4
54,53:4
55,1:5
55,2:2
55,4:5
55,5:5
55,6:2
55,10:2
55,11:6
55,13:9
55,14:9
55,15:9
55,17:5
55,19:2
55,20:11
55,21:11
55,26:11
55,27:5
55,28:2
55,29:3
55,30:5
55,31:3
55,32:6
55,34:11
55,35:2
55,38:12
55,39:12
55,40:11
55,43:11
55,45:11
55,52:4
55,53:4
56,1:9
56,2:6
56,4:9
56,5:9
56,6:6
56,7:4
56,8:4
56,9:3
56,10:6
56,11:10
56,12:3
56,13:13
56,14:13
56,15:13
56,17:9
56,19:6
56,20:15
56,21:15
56,22:1
56,23:1
56,24:4
56,25:4
56,26:15
56,27:9
56,28:6
56,29:7
56,30:9
56,31:7
56,32:10
56,33:3
56,34:15
56,35:6
56,36:4
56,38:16
56,39:16
56,40:15
56,43:15
56,45:15
56,48:4
56,49:4
56,52:8
56,53:8
56,54:4
56,55:4
57,1:9
57,2:6
57,4:9
57,5:9
57,6:6
57,7:4
57,8:4
57,9:3
57,10:6
57,11:10
57,12:3
57,13:13
57,14:13
57,15:13
57,17:9
57,19:6
57,20:15
57,21:15
57,22:1
57,23:1
57,24:4
57,25:4
57,26:15
57,27:9
57,28:6
57,29:7
57,30:9
57,31:7
57,32:10
57,33:3
57,34:15
57,35:6
57,36:4
57,38:16
57,39:16
57,40:15
57,43:15
57,45:15
57,48:4
57,49:4
57,52:8
57,53:8
57,54:4
57,55:4
58,1:9
58,2:6
58,4:9
58,5:9
58,6:6
58,7:4
58,8:4
58,9:3
58,10:6
58,11:10
58,12:3
58,13:13
58,14:13
58,15:13
58,17:9
58,19:6
58,20:15
58,21:15
58,22:1
58,23:1
58,24:4
58,25:4
58,26:15
58,27:9
58,28:6
58,29:7
58,30:9
58,31:7
58,32:10
58,33:3
58,34:15
58,35:6
58,36:4
58,38:16
58,39:16
58,40:15
58,43:15
58,45:15
58,48:4
58,49:4
58,52:8
58,53:8
58,54:4
58,55:4

<end>

<optimal SALBP-1 value>
20


<rand seed>
467321153

